GLPSOL: GLPK LP/MIP Solver, v4.65
Parameter(s) specified in the command line:
 -m transportation-penalties-B.mod -d transportation-penalties-large.dat --log
 transportation-penalties-B-large.log --xcheck
Reading model section from transportation-penalties-B.mod...
48 lines were read
Reading data section from transportation-penalties-large.dat...
33 lines were read
Checking (line 11)...
Generating Calculating_Demand_Satisfied...
Generating Availability_at_Supply_Points...
Generating Calculating_Exact_Demands...
Generating Total_Costs...
Model has been successfully generated
GLPK Simplex Optimizer, v4.65
17 rows, 42 columns, 108 non-zeros
Preprocessing...
16 rows, 36 columns, 66 non-zeros
Scaling...
 A: min|aij| =  1.000e+00  max|aij| =  1.000e+00  ratio =  1.000e+00
Problem data seem to be well scaled
Constructing initial basis...
Size of triangular part is 16
      0: obj =  -7.500000000e+03 inf =   7.500e+02 (6)
      9: obj =   3.690000000e+03 inf =   0.000e+00 (0)
*    13: obj =   2.700000000e+03 inf =   0.000e+00 (0)
OPTIMAL LP SOLUTION FOUND
glp_exact: 17 rows, 42 columns, 108 non-zeros
GNU MP bignum library is being used
*    13:   objval =                   2700   (0)
*    13:   objval =                   2700   (0)
OPTIMAL SOLUTION FOUND
Time used:   0.0 secs
Memory used: 0.2 Mb (159290 bytes)
Optimal cost: 2700.
Required: D1, Satisfied: 120 (+0)
Required: D2, Satisfied: 140 (+0)
Required: D3, Satisfied: 170 (+0)
Required: D4, Satisfied: 90 (+0)
Required: D5, Satisfied: 110 (+0)
Required: D6, Satisfied: 120 (+0)
From S1 to D1, transport 10 amount for 50 (unit cost: 5).
From S1 to D5, transport 90 amount for 450 (unit cost: 5).
From S2 to D1, transport 110 amount for 110 (unit cost: 1).
From S2 to D2, transport 140 amount for 280 (unit cost: 2).
From S3 to D3, transport 170 amount for 170 (unit cost: 1).
From S3 to D5, transport 20 amount for 80 (unit cost: 4).
From S4 to D4, transport 90 amount for 720 (unit cost: 8).
From S4 to D6, transport 120 amount for 840 (unit cost: 7).
Model has been successfully processed
